(declare-fun initial_a () (_ BitVec 64))
(declare-fun b!0 () (_ BitVec 64))
(declare-fun b!1 () (_ BitVec 64))
(declare-fun c!2 () (_ BitVec 64))
(declare-fun a!3 () (_ BitVec 64))
(declare-fun b!4 () (_ BitVec 64))
(declare-fun b!5 () (_ BitVec 64))
(declare-fun out!6 () (_ BitVec 64))
(declare-fun b!7 () (_ BitVec 64))
(declare-fun b!8 () (_ BitVec 64))
(declare-fun c!9 () (_ BitVec 64))
(declare-fun a!10 () (_ BitVec 64))
(declare-fun b!11 () (_ BitVec 64))
(declare-fun b!12 () (_ BitVec 64))
(declare-fun out!13 () (_ BitVec 64))
(declare-fun b!14 () (_ BitVec 64))
(declare-fun b!15 () (_ BitVec 64))
(declare-fun c!16 () (_ BitVec 64))
(declare-fun a!17 () (_ BitVec 64))
(declare-fun b!18 () (_ BitVec 64))
(declare-fun b!19 () (_ BitVec 64))
(declare-fun out!20 () (_ BitVec 64))
(declare-fun b!21 () (_ BitVec 64))
(declare-fun b!22 () (_ BitVec 64))
(declare-fun c!23 () (_ BitVec 64))
(declare-fun a!24 () (_ BitVec 64))
(declare-fun b!25 () (_ BitVec 64))
(declare-fun b!26 () (_ BitVec 64))
(declare-fun out!27 () (_ BitVec 64))
(declare-fun b!28 () (_ BitVec 64))
(declare-fun b!29 () (_ BitVec 64))
(declare-fun c!30 () (_ BitVec 64))
(declare-fun a!31 () (_ BitVec 64))
(declare-fun b!32 () (_ BitVec 64))
(declare-fun b!33 () (_ BitVec 64))
(declare-fun out!34 () (_ BitVec 64))
(declare-fun b!35 () (_ BitVec 64))
(declare-fun b!36 () (_ BitVec 64))
(declare-fun c!37 () (_ BitVec 64))
(declare-fun a!38 () (_ BitVec 64))
(declare-fun b!39 () (_ BitVec 64))
(declare-fun b!40 () (_ BitVec 64))
(declare-fun out!41 () (_ BitVec 64))
(declare-fun b!42 () (_ BitVec 64))
(declare-fun b!43 () (_ BitVec 64))
(declare-fun c!44 () (_ BitVec 64))
(declare-fun a!45 () (_ BitVec 64))
(declare-fun b!46 () (_ BitVec 64))
(declare-fun b!47 () (_ BitVec 64))
(declare-fun out!48 () (_ BitVec 64))
(declare-fun b!49 () (_ BitVec 64))
(declare-fun b!50 () (_ BitVec 64))
(declare-fun c!51 () (_ BitVec 64))
(declare-fun a!52 () (_ BitVec 64))
(declare-fun b!53 () (_ BitVec 64))
(declare-fun b!54 () (_ BitVec 64))
(declare-fun out!55 () (_ BitVec 64))
(declare-fun b!56 () (_ BitVec 64))
(declare-fun b!57 () (_ BitVec 64))
(declare-fun c!58 () (_ BitVec 64))
(declare-fun a!59 () (_ BitVec 64))
(declare-fun b!60 () (_ BitVec 64))
(declare-fun b!61 () (_ BitVec 64))
(declare-fun out!62 () (_ BitVec 64))
(declare-fun b!63 () (_ BitVec 64))
(declare-fun b!64 () (_ BitVec 64))
(declare-fun c!65 () (_ BitVec 64))
(declare-fun a!66 () (_ BitVec 64))
(declare-fun b!67 () (_ BitVec 64))
(declare-fun b!68 () (_ BitVec 64))
(declare-fun out!69 () (_ BitVec 64))
(declare-fun b!70 () (_ BitVec 64))
(declare-fun b!71 () (_ BitVec 64))
(declare-fun c!72 () (_ BitVec 64))
(declare-fun a!73 () (_ BitVec 64))
(declare-fun b!74 () (_ BitVec 64))
(declare-fun b!75 () (_ BitVec 64))
(declare-fun out!76 () (_ BitVec 64))
(declare-fun b!77 () (_ BitVec 64))
(declare-fun b!78 () (_ BitVec 64))
(declare-fun c!79 () (_ BitVec 64))
(declare-fun a!80 () (_ BitVec 64))
(declare-fun b!81 () (_ BitVec 64))
(declare-fun b!82 () (_ BitVec 64))
(declare-fun out!83 () (_ BitVec 64))
(declare-fun b!84 () (_ BitVec 64))
(declare-fun b!85 () (_ BitVec 64))
(declare-fun c!86 () (_ BitVec 64))
(declare-fun a!87 () (_ BitVec 64))
(declare-fun b!88 () (_ BitVec 64))
(declare-fun b!89 () (_ BitVec 64))
(declare-fun out!90 () (_ BitVec 64))
(declare-fun b!91 () (_ BitVec 64))
(declare-fun b!92 () (_ BitVec 64))
(declare-fun c!93 () (_ BitVec 64))
(declare-fun a!94 () (_ BitVec 64))
(declare-fun b!95 () (_ BitVec 64))
(declare-fun b!96 () (_ BitVec 64))
(declare-fun out!97 () (_ BitVec 64))
(declare-fun b!98 () (_ BitVec 64))
(declare-fun b!99 () (_ BitVec 64))
(declare-fun c!100 () (_ BitVec 64))
(declare-fun a!101 () (_ BitVec 64))
(declare-fun b!102 () (_ BitVec 64))
(declare-fun b!103 () (_ BitVec 64))
(declare-fun out!104 () (_ BitVec 64))
(declare-fun b!105 () (_ BitVec 64))
(declare-fun b!106 () (_ BitVec 64))
(declare-fun c!107 () (_ BitVec 64))
(declare-fun a!108 () (_ BitVec 64))
(declare-fun b!109 () (_ BitVec 64))
(declare-fun b!110 () (_ BitVec 64))
(declare-fun out!111 () (_ BitVec 64))
(assert (= b!0 (bvurem initial_a #x0000000000000008)))
(assert (= b!1 (bvxor b!0 #x0000000000000003)))
(assert (= c!2 (bvlshr initial_a b!1)))
(assert (= a!3 (bvlshr initial_a #x0000000000000003)))
(assert (= b!4 (bvxor b!1 c!2)))
(assert (= b!5 (bvxor b!4 #x0000000000000005)))
(assert (= out!6 (bvurem b!5 #x0000000000000008)))
(assert (= out!6 #x0000000000000002))
(assert (not (= a!3 #x0000000000000008)))
(assert (= b!7 (bvurem a!3 #x0000000000000008)))
(assert (= b!8 (bvxor b!7 #x0000000000000003)))
(assert (= c!9 (bvlshr a!3 b!8)))
(assert (= a!10 (bvlshr a!3 #x0000000000000003)))
(assert (= b!11 (bvxor b!8 c!9)))
(assert (= b!12 (bvxor b!11 #x0000000000000005)))
(assert (= out!13 (bvurem b!12 #x0000000000000008)))
(assert (= out!13 #x0000000000000004))
(assert (not (= a!10 #x0000000000000008)))
(assert (= b!14 (bvurem a!10 #x0000000000000008)))
(assert (= b!15 (bvxor b!14 #x0000000000000003)))
(assert (= c!16 (bvlshr a!10 b!15)))
(assert (= a!17 (bvlshr a!10 #x0000000000000003)))
(assert (= b!18 (bvxor b!15 c!16)))
(assert (= b!19 (bvxor b!18 #x0000000000000005)))
(assert (= out!20 (bvurem b!19 #x0000000000000008)))
(assert (= out!20 #x0000000000000001))
(assert (not (= a!17 #x0000000000000008)))
(assert (= b!21 (bvurem a!17 #x0000000000000008)))
(assert (= b!22 (bvxor b!21 #x0000000000000003)))
(assert (= c!23 (bvlshr a!17 b!22)))
(assert (= a!24 (bvlshr a!17 #x0000000000000003)))
(assert (= b!25 (bvxor b!22 c!23)))
(assert (= b!26 (bvxor b!25 #x0000000000000005)))
(assert (= out!27 (bvurem b!26 #x0000000000000008)))
(assert (= out!27 #x0000000000000003))
(assert (not (= a!24 #x0000000000000008)))
(assert (= b!28 (bvurem a!24 #x0000000000000008)))
(assert (= b!29 (bvxor b!28 #x0000000000000003)))
(assert (= c!30 (bvlshr a!24 b!29)))
(assert (= a!31 (bvlshr a!24 #x0000000000000003)))
(assert (= b!32 (bvxor b!29 c!30)))
(assert (= b!33 (bvxor b!32 #x0000000000000005)))
(assert (= out!34 (bvurem b!33 #x0000000000000008)))
(assert (= out!34 #x0000000000000007))
(assert (not (= a!31 #x0000000000000008)))
(assert (= b!35 (bvurem a!31 #x0000000000000008)))
(assert (= b!36 (bvxor b!35 #x0000000000000003)))
(assert (= c!37 (bvlshr a!31 b!36)))
(assert (= a!38 (bvlshr a!31 #x0000000000000003)))
(assert (= b!39 (bvxor b!36 c!37)))
(assert (= b!40 (bvxor b!39 #x0000000000000005)))
(assert (= out!41 (bvurem b!40 #x0000000000000008)))
(assert (= out!41 #x0000000000000005))
(assert (not (= a!38 #x0000000000000008)))
(assert (= b!42 (bvurem a!38 #x0000000000000008)))
(assert (= b!43 (bvxor b!42 #x0000000000000003)))
(assert (= c!44 (bvlshr a!38 b!43)))
(assert (= a!45 (bvlshr a!38 #x0000000000000003)))
(assert (= b!46 (bvxor b!43 c!44)))
(assert (= b!47 (bvxor b!46 #x0000000000000005)))
(assert (= out!48 (bvurem b!47 #x0000000000000008)))
(assert (= out!48 #x0000000000000000))
(assert (not (= a!45 #x0000000000000008)))
(assert (= b!49 (bvurem a!45 #x0000000000000008)))
(assert (= b!50 (bvxor b!49 #x0000000000000003)))
(assert (= c!51 (bvlshr a!45 b!50)))
(assert (= a!52 (bvlshr a!45 #x0000000000000003)))
(assert (= b!53 (bvxor b!50 c!51)))
(assert (= b!54 (bvxor b!53 #x0000000000000005)))
(assert (= out!55 (bvurem b!54 #x0000000000000008)))
(assert (= out!55 #x0000000000000003))
(assert (not (= a!52 #x0000000000000008)))
(assert (= b!56 (bvurem a!52 #x0000000000000008)))
(assert (= b!57 (bvxor b!56 #x0000000000000003)))
(assert (= c!58 (bvlshr a!52 b!57)))
(assert (= a!59 (bvlshr a!52 #x0000000000000003)))
(assert (= b!60 (bvxor b!57 c!58)))
(assert (= b!61 (bvxor b!60 #x0000000000000005)))
(assert (= out!62 (bvurem b!61 #x0000000000000008)))
(assert (= out!62 #x0000000000000004))
(assert (not (= a!59 #x0000000000000008)))
(assert (= b!63 (bvurem a!59 #x0000000000000008)))
(assert (= b!64 (bvxor b!63 #x0000000000000003)))
(assert (= c!65 (bvlshr a!59 b!64)))
(assert (= a!66 (bvlshr a!59 #x0000000000000003)))
(assert (= b!67 (bvxor b!64 c!65)))
(assert (= b!68 (bvxor b!67 #x0000000000000005)))
(assert (= out!69 (bvurem b!68 #x0000000000000008)))
(assert (= out!69 #x0000000000000003))
(assert (not (= a!66 #x0000000000000008)))
(assert (= b!70 (bvurem a!66 #x0000000000000008)))
(assert (= b!71 (bvxor b!70 #x0000000000000003)))
(assert (= c!72 (bvlshr a!66 b!71)))
(assert (= a!73 (bvlshr a!66 #x0000000000000003)))
(assert (= b!74 (bvxor b!71 c!72)))
(assert (= b!75 (bvxor b!74 #x0000000000000005)))
(assert (= out!76 (bvurem b!75 #x0000000000000008)))
(assert (= out!76 #x0000000000000001))
(assert (not (= a!73 #x0000000000000008)))
(assert (= b!77 (bvurem a!73 #x0000000000000008)))
(assert (= b!78 (bvxor b!77 #x0000000000000003)))
(assert (= c!79 (bvlshr a!73 b!78)))
(assert (= a!80 (bvlshr a!73 #x0000000000000003)))
(assert (= b!81 (bvxor b!78 c!79)))
(assert (= b!82 (bvxor b!81 #x0000000000000005)))
(assert (= out!83 (bvurem b!82 #x0000000000000008)))
(assert (= out!83 #x0000000000000005))
(assert (not (= a!80 #x0000000000000008)))
(assert (= b!84 (bvurem a!80 #x0000000000000008)))
(assert (= b!85 (bvxor b!84 #x0000000000000003)))
(assert (= c!86 (bvlshr a!80 b!85)))
(assert (= a!87 (bvlshr a!80 #x0000000000000003)))
(assert (= b!88 (bvxor b!85 c!86)))
(assert (= b!89 (bvxor b!88 #x0000000000000005)))
(assert (= out!90 (bvurem b!89 #x0000000000000008)))
(assert (= out!90 #x0000000000000005))
(assert (not (= a!87 #x0000000000000008)))
(assert (= b!91 (bvurem a!87 #x0000000000000008)))
(assert (= b!92 (bvxor b!91 #x0000000000000003)))
(assert (= c!93 (bvlshr a!87 b!92)))
(assert (= a!94 (bvlshr a!87 #x0000000000000003)))
(assert (= b!95 (bvxor b!92 c!93)))
(assert (= b!96 (bvxor b!95 #x0000000000000005)))
(assert (= out!97 (bvurem b!96 #x0000000000000008)))
(assert (= out!97 #x0000000000000005))
(assert (not (= a!94 #x0000000000000008)))
(assert (= b!98 (bvurem a!94 #x0000000000000008)))
(assert (= b!99 (bvxor b!98 #x0000000000000003)))
(assert (= c!100 (bvlshr a!94 b!99)))
(assert (= a!101 (bvlshr a!94 #x0000000000000003)))
(assert (= b!102 (bvxor b!99 c!100)))
(assert (= b!103 (bvxor b!102 #x0000000000000005)))
(assert (= out!104 (bvurem b!103 #x0000000000000008)))
(assert (= out!104 #x0000000000000003))
(assert (not (= a!101 #x0000000000000008)))
(assert (= b!105 (bvurem a!101 #x0000000000000008)))
(assert (= b!106 (bvxor b!105 #x0000000000000003)))
(assert (= c!107 (bvlshr a!101 b!106)))
(assert (= a!108 (bvlshr a!101 #x0000000000000003)))
(assert (= b!109 (bvxor b!106 c!107)))
(assert (= b!110 (bvxor b!109 #x0000000000000005)))
(assert (= out!111 (bvurem b!110 #x0000000000000008)))
(assert (= out!111 #x0000000000000000))
(assert (= a!108 #x0000000000000000))
